(set-option :print-success false)
(set-logic QF_UF)
(declare-sort x157 0)
(declare-sort x109 0)
(declare-fun x132 () x109)
(declare-fun x130 (x109 x109) x109)
(declare-fun x56 (x109 x109) x109)
(declare-fun x69 () x109)
(declare-fun x85 () x109)
(declare-fun x127 () x109)
(declare-fun x117 () x109)
(assert (or (and (not (= (x56 x132 x132) x132)) (and (and (and (not (= x127 (x56 x127 x132))) (not (= (x56 x69 x132) x69))) (not (= x85 (x56 x85 x132)))) (not (= x117 (x56 x117 x132))))) (or (and (not (= (x56 x132 x117) x132)) (and (and (and (not (= x69 (x56 x69 x117))) (not (= (x56 x127 x117) x127))) (not (= x85 (x56 x85 x117)))) (not (= (x56 x117 x117) x117)))) (or (or (and (and (and (and (not (= x127 (x56 x127 x69))) (not (= (x56 x69 x69) x69))) (not (= (x56 x85 x69) x85))) (not (= (x56 x117 x69) x117))) (not (= (x56 x132 x69) x132))) (and (and (not (= (x56 x117 x127) x117)) (and (and (not (= (x56 x69 x127) x69)) (not (= x127 (x56 x127 x127)))) (not (= x85 (x56 x85 x127))))) (not (= (x56 x132 x127) x132)))) (and (not (= (x56 x132 x85) x132)) (and (not (= (x56 x117 x85) x117)) (and (not (= x85 (x56 x85 x85))) (and (not (= x127 (x56 x127 x85))) (not (= (x56 x69 x85) x69))))))))))
(assert (let ((x97 (x56 x132 x69)) (x84 (x56 x127 x69)) (x114 (x56 x132 x85)) (x122 (x56 x85 x132)) (x40 (x56 x85 x85)) (x54 (x56 x69 x117)) (x31 (x56 x85 x127)) (x94 (x56 x69 x69)) (x82 (x56 x69 x85)) (x5 (x56 x127 x117)) (x1 (x56 x117 x117)) (x110 (x56 x127 x132)) (x47 (x56 x85 x69)) (x61 (x56 x127 x85)) (x73 (x56 x69 x132)) (x37 (x56 x69 x127)) (x20 (x56 x117 x69)) (x87 (x56 x132 x117)) (x136 (x56 x85 x117)) (x52 (x56 x117 x127)) (x68 (x56 x127 x127)) (x155 (x56 x132 x127)) (x39 (x56 x117 x132)) (x121 (x56 x117 x85)) (x146 (x56 x132 x132))) (let ((x158 (= x68 x85)) (x27 (= x94 x132)) (x49 (= x155 x69)) (x44 (= x85 x31)) (x93 (= x121 x132)) (x12 (= x52 x132)) (x116 (= x37 x132)) (x123 (= x132 x97)) (x10 (= x85 x73)) (x9 (= x82 x85)) (x33 (= x37 x85)) (x50 (= x127 x146)) (x147 (= x40 x127)) (x16 (= x68 x127)) (x112 (= x1 x85)) (x62 (= x117 x40)) (x101 (= x31 x69)) (x45 (= x61 x132)) (x30 (= x20 x117)) (x107 (= x132 x82)) (x25 (= x110 x132)) (x140 (= x127 x52)) (x138 (= x117 x122)) (x81 (= x52 x85)) (x22 (= x132 x146)) (x42 (= x117 x136)) (x128 (= x1 x132)) (x8 (= x69 x40)) (x120 (= x155 x85)) (x3 (= x155 x132)) (x150 (= x87 x117)) (x71 (= x85 x97)) (x149 (= x20 x69)) (x57 (= x84 x85)) (x108 (= x127 x97)) (x43 (= x136 x127)) (x151 (= x117 x110)) (x92 (= x87 x69)) (x148 (= x117 x97)) (x74 (= x114 x85)) (x119 (= x132 x84)) (x72 (= x132 x40)) (x156 (= x85 x121)) (x4 (= x85 x146)) (x104 (= x20 x132)) (x75 (= x84 x69)) (x88 (= x127 x54)) (x135 (= x39 x132)) (x24 (= x73 x132)) (x58 (= x5 x127)) (x65 (= x85 x40)) (x55 (= x61 x85)) (x18 (= x127 x47)) (x80 (= x54 x117)) (x23 (= x127 x122)) (x11 (= x73 x69)) (x126 (= x127 x121)) (x100 (= x85 x39)) (x53 (= x117 x82)) (x95 (= x85 x94)) (x159 (= x85 x110)) (x99 (= x127 x31)) (x67 (= x5 x117)) (x14 (= x69 x47)) (x13 (= x69 x82)) (x102 (= x52 x69)) (x38 (= x117 x61)) (x115 (= x87 x132)) (x83 (= x69 x97)) (x66 (= x117 x1)) (x125 (= x39 x127)) (x36 (= x132 x114)) (x134 (= x54 x132)) (x90 (= x5 x69)) (x86 (= x127 x73)) (x141 (= x5 x85)) (x118 (= x82 x127)) (x106 (= x117 x114)) (x133 (= x136 x85)) (x154 (= x114 x127)) (x103 (= x37 x69)) (x26 (= x61 x127)) (x17 (= x69 x122)) (x96 (= x110 x69)) (x145 (= x127 x110)) (x139 (= x68 x69)) (x131 (= x122 x85)) (x91 (= x69 x146)) (x78 (= x94 x69)) (x105 (= x47 x132)) (x60 (= x117 x37)) (x59 (= x68 x117)) (x34 (= x117 x73)) (x113 (= x39 x117)) (x79 (= x117 x84)) (x46 (= x69 x61)) (x76 (= x127 x84)) (x2 (= x87 x127)) (x64 (= x132 x5)) (x137 (= x47 x85)) (x28 (= x94 x127)) (x51 (= x132 x68)) (x6 (= x69 x39)) (x48 (= x132 x122)) (x29 (= x69 x136)) (x144 (= x1 x127)) (x41 (= x69 x114)) (x142 (= x117 x121)) (x129 (= x127 x37)) (x32 (= x20 x85)) (x124 (= x132 x136)) (x21 (= x117 x146)) (x7 (= x94 x117)) (x98 (= x117 x31)) (x15 (= x31 x132)) (x111 (= x54 x69)) (x70 (= x69 x1)) (x35 (= x85 x54)) (x77 (= x121 x69)) (x89 (= x127 x155)) (x19 (= x47 x117)) (x152 (= x127 x20)) (x143 (= x85 x87)) (x63 (= x52 x117)) (x153 (= x155 x117))) (and (and (or (or (and x21 x21) (or (or (or (and x153 x151) (and x148 x34)) (and x106 x138)) (and x150 x113))) (or (or (or (or (or (or (and x38 x98) (or (and x60 x79) (and x59 x59))) (and x63 x67)) (and x151 x153)) (or (or (or (or (and x7 x7) (and x79 x60)) (and x53 x19)) (and x30 x80)) (and x148 x34))) (or (or (or (and x62 x62) (or (and x53 x19) (and x38 x98))) (and x42 x142)) (and x106 x138))) (or (and x150 x113) (or (and x66 x66) (or (or (and x67 x63) (and x30 x80)) (and x142 x42)))))) (and (and (or (or (or (or (or (or (and x152 x88) (and x140 x58)) (and x126 x43)) (and x144 x144)) (and x2 x125)) (or (or (or (or (or (and x26 x99) (or (and x16 x16) (and x129 x76))) (and x140 x58)) (and x145 x89)) (or (or (or (or (and x76 x129) (and x28 x28)) (and x18 x118)) (and x88 x152)) (and x108 x86))) (or (or (and x126 x43) (or (or (and x18 x118) (and x26 x99)) (and x147 x147))) (and x23 x154)))) (or (and x50 x50) (or (and x2 x125) (or (or (and x89 x145) (and x108 x86)) (and x23 x154))))) (or (or (and x91 x91) (or (and x92 x6) (or (or (and x11 x83) (and x96 x49)) (and x17 x41)))) (or (or (and x92 x6) (or (and x70 x70) (or (and x77 x29) (or (and x102 x90) (and x111 x149))))) (or (or (or (and x11 x83) (or (or (and x13 x14) (or (and x75 x103) (and x78 x78))) (and x149 x111))) (or (and x96 x49) (or (and x90 x102) (or (or (and x75 x103) (and x139 x139)) (and x101 x46))))) (or (or (or (and x8 x8) (or (and x13 x14) (and x101 x46))) (and x29 x77)) (and x17 x41)))))) (or (or (or (and x143 x100) (or (and x112 x112) (or (or (and x81 x141) (and x35 x32)) (and x156 x133)))) (or (or (or (or (or (or (and x33 x57) (and x95 x95)) (and x9 x137)) (and x35 x32)) (and x71 x10)) (or (and x159 x120) (or (and x141 x81) (or (and x55 x44) (or (and x158 x158) (and x33 x57)))))) (or (and x131 x74) (or (or (or (and x55 x44) (and x137 x9)) (and x65 x65)) (and x133 x156))))) (or (and x4 x4) (or (or (or (and x10 x71) (and x120 x159)) (and x131 x74)) (and x143 x100)))))) (or (or (or (or (or (or (or (or (and x119 x116) (and x51 x51)) (and x15 x45)) (and x64 x12)) (and x3 x25)) (or (and x24 x123) (or (and x104 x134) (or (or (and x119 x116) (and x27 x27)) (and x107 x105))))) (or (and x36 x48) (or (and x124 x93) (or (or (and x107 x105) (and x15 x45)) (and x72 x72))))) (or (or (or (and x124 x93) (or (and x134 x104) (and x12 x64))) (and x128 x128)) (and x115 x135))) (or (and x22 x22) (or (and x115 x135) (or (or (and x123 x24) (and x25 x3)) (and x48 x36)))))))))
(assert (or (or (or (and (and (and (and (not (= (x56 (x56 x85 x127) x85) x127)) (not (= x69 (x56 (x56 x85 x69) x85)))) (not (= (x56 (x56 x85 x85) x85) x85))) (not (= (x56 (x56 x85 x117) x85) x117))) (not (= x132 (x56 (x56 x85 x132) x85)))) (or (and (and (not (= (x56 (x56 x69 x117) x69) x117)) (and (not (= x85 (x56 (x56 x69 x85) x69))) (and (not (= x127 (x56 (x56 x69 x127) x69))) (not (= (x56 (x56 x69 x69) x69) x69))))) (not (= x132 (x56 (x56 x69 x132) x69)))) (and (not (= x132 (x56 (x56 x127 x132) x127))) (and (not (= (x56 (x56 x127 x117) x127) x117)) (and (and (not (= x127 (x56 (x56 x127 x127) x127))) (not (= (x56 (x56 x127 x69) x127) x69))) (not (= x85 (x56 (x56 x127 x85) x127)))))))) (and (and (not (= x117 (x56 (x56 x117 x117) x117))) (and (and (not (= x69 (x56 (x56 x117 x69) x117))) (not (= x127 (x56 (x56 x117 x127) x117)))) (not (= x85 (x56 (x56 x117 x85) x117))))) (not (= x132 (x56 (x56 x117 x132) x117))))) (and (not (= x132 (x56 (x56 x132 x132) x132))) (and (not (= (x56 (x56 x132 x117) x132) x117)) (and (and (not (= (x56 (x56 x132 x127) x132) x127)) (not (= x69 (x56 (x56 x132 x69) x132)))) (not (= x85 (x56 (x56 x132 x85) x132))))))))
(assert (or (or (or (or (and (not (= x69 (x56 (x56 x132 x69) x132))) (and (and (and (not (= (x56 (x56 x69 x69) x69) x69)) (not (= x69 (x56 (x56 x127 x69) x127)))) (not (= x69 (x56 (x56 x85 x69) x85)))) (not (= x69 (x56 (x56 x117 x69) x117))))) (and (and (and (and (not (= (x56 (x56 x127 x127) x127) x127)) (not (= (x56 (x56 x69 x127) x69) x127))) (not (= (x56 (x56 x85 x127) x85) x127))) (not (= (x56 (x56 x117 x127) x117) x127))) (not (= x127 (x56 (x56 x132 x127) x132))))) (and (and (not (= x85 (x56 (x56 x117 x85) x117))) (and (not (= x85 (x56 (x56 x85 x85) x85))) (and (not (= x85 (x56 (x56 x69 x85) x69))) (not (= x85 (x56 (x56 x127 x85) x127)))))) (not (= x85 (x56 (x56 x132 x85) x132))))) (and (and (not (= (x56 (x56 x117 x117) x117) x117)) (and (not (= x117 (x56 (x56 x85 x117) x85))) (and (not (= x117 (x56 (x56 x69 x117) x69))) (not (= (x56 (x56 x127 x117) x127) x117))))) (not (= (x56 (x56 x132 x117) x132) x117)))) (and (not (= x132 (x56 (x56 x132 x132) x132))) (and (and (and (not (= (x56 (x56 x127 x132) x127) x132)) (not (= x132 (x56 (x56 x69 x132) x69)))) (not (= (x56 (x56 x85 x132) x85) x132))) (not (= (x56 (x56 x117 x132) x117) x132))))))
(assert (let ((x17 (x56 x127 x132)) (x28 (x56 x132 x127)) (x55 (x56 x132 x117)) (x34 (x56 x132 x132)) (x14 (x56 x69 x117)) (x13 (x56 x69 x132)) (x110 (x56 x85 x85)) (x8 (x56 x85 x69)) (x103 (x56 x69 x127)) (x96 (x56 x127 x85)) (x75 (x56 x69 x69)) (x41 (x56 x127 x117)) (x139 (x56 x69 x85)) (x149 (x56 x117 x69)) (x57 (x56 x117 x117)) (x33 (x56 x117 x132)) (x40 (x56 x117 x85)) (x147 (x56 x132 x85)) (x18 (x56 x85 x132)) (x46 (x56 x127 x69)) (x111 (x56 x132 x69)) (x94 (x56 x117 x127)) (x49 (x56 x127 x127)) (x155 (x56 x85 x117)) (x91 (x56 x85 x127))) (let ((x20 (= x117 x49)) (x60 (= x132 x155)) (x43 (= x117 x110)) (x97 (= x132 x103)) (x70 (= x103 x69)) (x123 (= x111 x132)) (x51 (= x17 x85)) (x61 (= x69 x96)) (x136 (= x8 x85)) (x89 (= x94 x69)) (x64 (= x17 x117)) (x150 (= x127 x34)) (x63 (= x69 x33)) (x105 (= x18 x85)) (x146 (= x149 x127)) (x126 (= x117 x96)) (x74 (= x117 x155)) (x104 (= x117 x147)) (x59 (= x132 x57)) (x107 (= x85 x33)) (x44 (= x127 x57)) (x26 (= x127 x110)) (x79 (= x132 x41)) (x93 (= x117 x18)) (x99 (= x96 x127)) (x9 (= x155 x127)) (x148 (= x127 x55)) (x151 (= x127 x17)) (x141 (= x41 x85)) (x6 (= x49 x127)) (x154 (= x14 x69)) (x80 (= x18 x69)) (x82 (= x85 x49)) (x159 (= x41 x117)) (x71 (= x94 x117)) (x12 (= x13 x117)) (x144 (= x91 x132)) (x145 (= x69 x40)) (x16 (= x139 x69)) (x66 (= x127 x147)) (x2 (= x155 x69)) (x138 (= x33 x127)) (x78 (= x69 x75)) (x42 (= x28 x127)) (x135 (= x33 x132)) (x153 (= x13 x127)) (x67 (= x69 x34)) (x129 (= x69 x8)) (x140 (= x117 x91)) (x24 (= x28 x132)) (x87 (= x96 x132)) (x106 (= x127 x18)) (x122 (= x85 x139)) (x108 (= x110 x132)) (x35 (= x85 x40)) (x133 (= x57 x85)) (x131 (= x117 x57)) (x29 (= x46 x69)) (x120 (= x117 x14)) (x156 (= x155 x85)) (x83 (= x49 x69)) (x98 (= x147 x69)) (x114 (= x96 x85)) (x142 (= x111 x127)) (x68 (= x91 x69)) (x84 (= x103 x85)) (x125 (= x69 x57)) (x32 (= x94 x85)) (x102 (= x75 x85)) (x48 (= x17 x132)) (x39 (= x139 x132)) (x128 (= x117 x34)) (x90 (= x117 x75)) (x81 (= x14 x85)) (x19 (= x69 x111)) (x112 (= x149 x117)) (x21 (= x85 x28)) (x38 (= x55 x69)) (x92 (= x127 x103)) (x23 (= x69 x41)) (x50 (= x94 x127)) (x10 (= x117 x40)) (x37 (= x85 x46)) (x65 (= x85 x149)) (x72 (= x28 x117)) (x4 (= x40 x132)) (x77 (= x132 x75)) (x53 (= x69 x28)) (x143 (= x132 x149)) (x119 (= x55 x85)) (x115 (= x132 x18)) (x45 (= x117 x111)) (x52 (= x127 x91)) (x116 (= x85 x13)) (x5 (= x8 x127)) (x31 (= x110 x69)) (x36 (= x13 x132)) (x118 (= x139 x127)) (x88 (= x8 x117)) (x101 (= x127 x75)) (x30 (= x17 x69)) (x58 (= x139 x117)) (x73 (= x132 x46)) (x62 (= x69 x13)) (x152 (= x110 x85)) (x100 (= x132 x94)) (x95 (= x127 x40)) (x158 (= x14 x127)) (x134 (= x55 x117)) (x22 (= x132 x34)) (x25 (= x132 x55)) (x15 (= x34 x85)) (x47 (= x117 x46)) (x113 (= x85 x111)) (x27 (= x85 x147)) (x124 (= x117 x33)) (x11 (= x127 x46)) (x121 (= x91 x85)) (x76 (= x49 x132)) (x3 (= x132 x147)) (x1 (= x8 x132)) (x86 (= x69 x149)) (x7 (= x14 x132)) (x137 (= x41 x127)) (x54 (= x103 x117))) (and (and (and (and (and (and (and (or (or (or x88 (or x47 x90)) x112) x45) (or (or (or x58 (or x54 x90)) x120) x12)) (and (and (or (or x81 (or (or x84 x102) x122)) x116) (or (or x65 (or (or x102 x37) x136)) x113)) (and (and (or x153 (or x158 (or (or x101 x92) x118))) (or (or (or (or x101 x11) x5) x146) x142)) (and (or (or x86 (or x129 (or x29 x78))) x19) (or (or x154 (or (or x70 x78) x16)) x62))))) (and (or (or (or x39 (or x77 x97)) x7) x36) (or (or x143 (or (or x73 x77) x1)) x123))) (and (and (or (or x79 (or x87 (or x76 x73))) x48) (or (or (or (or x97 x76) x144) x100) x24)) (and (and (and (or (or x32 (or (or x82 x84) x121)) x21) (or (or (or (or x82 x37) x114) x141) x51)) (and (and (or (or (or x68 (or x70 x83)) x89) x53) (or (or (or x61 (or x29 x83)) x23) x30)) (and (or x151 (or x137 (or x99 (or x6 x11)))) (or x42 (or (or x52 (or x6 x92)) x50))))) (and (or x64 (or x159 (or (or x47 x20) x126))) (or x72 (or (or (or x20 x54) x140) x71)))))) (and (and (or (or (or x108 (or x87 x39)) x4) x3) (or (or x60 (or (or x144 x1) x108)) x115)) (and (and (and (and (or (or x95 (or (or x118 x99) x26)) x66) (or (or (or x26 (or x5 x52)) x9) x106)) (and (or x98 (or (or (or x16 x61) x31) x145)) (or (or (or (or x68 x129) x31) x2) x80))) (and (or x105 (or (or (or x121 x136) x152) x156)) (or (or x35 (or (or x122 x114) x152)) x27))) (and (or (or (or (or x58 x126) x43) x10) x104) (or (or (or x43 (or x88 x140)) x74) x93))))) (and (and (or (or (or x4 (or x100 x143)) x59) x135) (or x25 (or x59 (or (or x7 x79) x60)))) (and (and (and (or x107 (or x133 (or x35 (or x32 x65)))) (or (or (or x156 (or x81 x141)) x133) x119)) (and (and (or x138 (or x44 (or (or x146 x50) x95))) (or (or x44 (or x9 (or x137 x158))) x148)) (and (or x63 (or x125 (or x145 (or x86 x89)))) (or x38 (or (or x2 (or x154 x23)) x125))))) (and (or (or (or x10 (or x71 x112)) x131) x124) (or x134 (or x131 (or x74 (or x120 x159)))))))) (and (and (or x22 (or (or (or x48 x36) x115) x135)) (or x22 (or x25 (or (or x123 x24) x3)))) (and (and (or (or (or (or x45 x72) x104) x134) x128) (or x128 (or x124 (or (or x12 x64) x93)))) (and (and (or x15 (or (or (or x51 x116) x105) x107)) (or (or (or (or x21 x113) x27) x119) x15)) (and (and (or x67 (or (or (or x62 x30) x80) x63)) (or x67 (or (or x98 (or x53 x19)) x38))) (and (or (or (or (or x151 x153) x106) x138) x150) (or (or x148 (or x66 (or x142 x42))) x150))))))))))
(assert (and (not (= x117 x132)) (and (and (and (and (and (not (= x85 x127)) (and (not (= x69 x132)) (and (not (= x117 x69)) (and (not (= x127 x69)) (not (= x69 x85)))))) (not (= x117 x127))) (not (= x127 x132))) (not (= x85 x117))) (not (= x85 x132)))))
(assert (let ((x84 (x56 x69 x85)) (x28 (x56 x69 x127)) (x14 (x56 x85 x69)) (x17 (x56 x85 x132)) (x41 (x56 x132 x85)) (x75 (x56 x127 x69)) (x90 (x56 x127 x117)) (x6 (x56 x117 x132)) (x96 (x56 x127 x132)) (x47 (x56 x69 x117)) (x49 (x56 x132 x127)) (x91 (x56 x132 x132)) (x149 (x56 x117 x69)) (x29 (x56 x85 x117)) (x102 (x56 x117 x127)) (x70 (x56 x117 x117)) (x20 (x56 x69 x132)) (x8 (x56 x85 x85)) (x92 (x56 x132 x117)) (x94 (x56 x69 x69)) (x83 (x56 x132 x69)) (x46 (x56 x127 x85)) (x101 (x56 x85 x127)) (x139 (x56 x127 x127)) (x77 (x56 x117 x85))) (let ((x118 (= x132 x92)) (x129 (= x101 x85)) (x40 (= x91 x132)) (x37 (= x127 x75)) (x110 (= x132 x41)) (x99 (= x85 x17)) (x78 (= x69 x94)) (x54 (= x149 x117)) (x155 (= x85 x29)) (x61 (= x96 x127)) (x97 (= x127 x139)) (x111 (= x69 x47)) (x82 (= x85 x14)) (x18 (= x70 x117)) (x5 (= x8 x85)) (x103 (= x28 x69)) (x16 (= x117 x102)) (x73 (= x132 x83)) (x13 (= x69 x84)) (x52 (= x117 x77)) (x31 (= x49 x132)) (x76 (= x127 x46)) (x11 (= x69 x20)) (x68 (= x90 x127)) (x26 (= x6 x117))) (and (and (or (or (or (or (or (and x52 (= x117 x29)) (or (or (and (= x14 x117) x13) (and (= x101 x117) x76)) (and x5 (= x8 x117)))) (and (= x17 x117) x110)) (or (or (and (= x117 x20) x73) (or (or (or (and x37 (= x28 x117)) (and (= x94 x117) x78)) (and x82 (= x117 x84))) (and (= x47 x117) x54))) (or (and x31 (= x96 x117)) (or (and x16 (= x117 x90)) (or (and (= x46 x117) x129) (or (and (= x139 x117) x97) (and (= x75 x117) x103))))))) (or (or (and x18 x18) (or (and x52 x155) (or (and x54 x111) (and x68 x16)))) (and x26 x118))) (or (or (or (and x99 (= x41 x117)) (or (and (= x117 x49) x61) (and (= x83 x117) x11))) (and x26 (= x117 x92))) (and x40 (= x117 x91)))) (and (and (or (or (or (or (or (and (= x49 x127) x61) (and x11 (= x127 x83))) (and (= x41 x127) x99)) (and x26 (= x92 x127))) (and (= x127 x91) x40)) (or (or (and x118 (= x127 x6)) (or (and (= x127 x70) x18) (or (and (= x127 x77) x155) (or (and x68 (= x102 x127)) (and (= x149 x127) x111))))) (or (or (or (or (or (and x129 x76) (or (and x97 x97) (and x103 x37))) (and x68 x16)) (and x61 x31)) (or (and (= x127 x20) x73) (or (and x54 (= x47 x127)) (or (and (= x127 x84) x82) (or (and (= x127 x94) x78) (and x37 (= x28 x127))))))) (or (and x110 (= x127 x17)) (or (and (= x127 x29) x52) (or (and (= x8 x127) x5) (or (and (= x127 x14) x13) (and (= x101 x127) x76)))))))) (or (or (or (or (or (or (or (and (= x69 x46) x129) (or (and x97 (= x139 x69)) (and (= x69 x75) x103))) (and x16 (= x90 x69))) (and (= x69 x96) x31)) (or (or (and x54 x111) (or (and x82 x13) (or (and x78 x78) (and x103 x37)))) (and x11 x73))) (or (or (or (and (= x69 x8) x5) (or (and x13 (= x14 x69)) (and (= x69 x101) x76))) (and (= x69 x29) x52)) (and (= x17 x69) x110))) (or (or (and x18 (= x69 x70)) (or (or (and (= x69 x149) x111) (and x68 (= x102 x69))) (and (= x77 x69) x155))) (and x118 (= x69 x6)))) (or (or (or (and (= x41 x69) x99) (or (and x11 (= x83 x69)) (and x61 (= x69 x49)))) (and x26 (= x92 x69))) (and x40 (= x91 x69))))) (or (or (and x40 (= x85 x91)) (or (and (= x92 x85) x26) (or (and (= x41 x85) x99) (or (and x11 (= x85 x83)) (and (= x49 x85) x61))))) (or (or (or (or (or (and (= x85 x90) x16) (or (or (and x103 (= x85 x75)) (and (= x139 x85) x97)) (and x129 (= x46 x85)))) (and (= x85 x96) x31)) (or (or (or (and (= x84 x85) x82) (or (and x37 (= x85 x28)) (and (= x85 x94) x78))) (and x54 (= x47 x85))) (and x73 (= x85 x20)))) (or (or (and x155 x52) (or (and x5 x5) (or (and x82 x13) (and x129 x76)))) (and x110 x99))) (or (or (or (or (and (= x149 x85) x111) (and (= x85 x102) x68)) (and x155 (= x85 x77))) (and x18 (= x85 x70))) (and x118 (= x6 x85))))))) (or (or (and x40 x40) (or (and x118 x26) (or (and x99 x110) (or (and x61 x31) (and x11 x73))))) (or (or (and (= x132 x6) x118) (or (and (= x132 x70) x18) (or (or (and (= x132 x149) x111) (and x68 (= x132 x102))) (and (= x77 x132) x155)))) (or (or (or (and x52 (= x132 x29)) (or (or (and (= x14 x132) x13) (and x76 (= x101 x132))) (and (= x8 x132) x5))) (and x110 (= x17 x132))) (or (or (or (and x54 (= x132 x47)) (or (or (and x78 (= x132 x94)) (and x37 (= x28 x132))) (and x82 (= x84 x132)))) (and x73 (= x132 x20))) (or (or (and (= x90 x132) x16) (or (or (and x97 (= x139 x132)) (and x103 (= x132 x75))) (and x129 (= x132 x46)))) (and x31 (= x132 x96)))))))))))
(assert (not (and (and (and (and (and (= x127 (x56 x132 x69)) (and (and (and (and (and (and (and (= x117 (x56 x85 x117)) (and (= x127 (x56 x85 x85)) (and (= x69 (x56 x85 x127)) (and (= (x56 x85 x69) x85) (and (and (and (= (x56 x127 x85) x85) (and (and (= (x56 x127 x69) x69) (and (and (= x132 (x56 x69 x117)) (and (= x69 (x56 x69 x85)) (and (= (x56 x69 x127) x85) (= x117 (x56 x69 x69))))) (= (x56 x69 x132) x127))) (= x132 (x56 x127 x127)))) (= x127 (x56 x127 x117))) (= (x56 x127 x132) x117)))))) (= (x56 x85 x132) x132)) (= (x56 x117 x69) x132)) (= (x56 x117 x127) x127)) (= x117 (x56 x117 x85))) (= x69 (x56 x117 x117))) (= x85 (x56 x117 x132)))) (= x117 (x56 x132 x127))) (= x132 (x56 x132 x85))) (= x85 (x56 x132 x117))) (= (x56 x132 x132) x69))))
(assert (let ((x17 (x56 x127 x132)) (x103 (x56 x85 x69)) (x139 (x56 x117 x69)) (x90 (x56 x85 x85)) (x14 (x56 x132 x69)) (x77 (x56 x117 x85)) (x6 (x56 x117 x132)) (x149 (x56 x132 x127)) (x11 (x56 x85 x117)) (x8 (x56 x117 x127)) (x49 (x56 x117 x117)) (x101 (x56 x127 x127)) (x46 (x56 x85 x127)) (x75 (x56 x127 x69)) (x111 (x56 x69 x85)) (x96 (x56 x132 x117)) (x41 (x56 x69 x132)) (x83 (x56 x127 x117)) (x91 (x56 x132 x132)) (x92 (x56 x85 x132)) (x29 (x56 x132 x85)) (x13 (x56 x69 x127)) (x78 (x56 x69 x69)) (x102 (x56 x127 x85)) (x70 (x56 x69 x117))) (and (and (and (and (and (and (not (= x14 x139)) (and (not (= x103 x14)) (and (not (= x103 x139)) (and (and (not (= x139 x75)) (and (not (= x75 x103)) (and (not (= x78 x14)) (and (and (not (= x75 x78)) (not (= x103 x78))) (not (= x139 x78)))))) (not (= x75 x14)))))) (and (and (and (and (not (= x149 x101)) (and (and (not (= x46 x101)) (and (and (not (= x13 x8)) (and (not (= x13 x46)) (not (= x101 x13)))) (not (= x13 x149)))) (not (= x8 x101)))) (not (= x46 x8))) (not (= x149 x46))) (not (= x8 x149)))) (and (not (= x29 x77)) (and (not (= x29 x90)) (and (and (and (not (= x77 x102)) (and (and (not (= x111 x29)) (and (not (= x77 x111)) (and (not (= x102 x111)) (not (= x111 x90))))) (not (= x102 x90)))) (not (= x102 x29))) (not (= x77 x90)))))) (and (not (= x49 x96)) (and (not (= x11 x96)) (and (and (and (and (and (not (= x96 x70)) (and (and (not (= x70 x83)) (not (= x11 x70))) (not (= x70 x49)))) (not (= x83 x11))) (not (= x49 x83))) (not (= x96 x83))) (not (= x11 x49)))))) (and (and (not (= x91 x92)) (and (and (and (not (= x17 x6)) (and (not (= x92 x17)) (and (and (and (not (= x41 x17)) (not (= x41 x92))) (not (= x41 x6))) (not (= x41 x91))))) (not (= x17 x91))) (not (= x6 x92)))) (not (= x91 x6)))) (and (and (and (and (not (= x96 x29)) (and (not (= x91 x149)) (and (and (and (not (= x14 x91)) (and (not (= x14 x96)) (and (not (= x149 x14)) (not (= x29 x14))))) (not (= x149 x29))) (not (= x149 x96))))) (not (= x29 x91))) (not (= x96 x91))) (and (and (and (and (and (not (= x17 x102)) (and (not (= x83 x102)) (and (and (and (not (= x101 x102)) (and (and (not (= x75 x83)) (and (not (= x75 x102)) (not (= x101 x75)))) (not (= x17 x75)))) (not (= x101 x83))) (not (= x17 x101))))) (not (= x17 x83))) (and (not (= x70 x41)) (and (not (= x41 x111)) (and (not (= x111 x70)) (and (and (not (= x70 x13)) (and (not (= x111 x13)) (and (and (and (not (= x111 x78)) (not (= x78 x13))) (not (= x78 x70))) (not (= x41 x78))))) (not (= x13 x41))))))) (and (not (= x92 x11)) (and (not (= x90 x92)) (and (not (= x90 x11)) (and (not (= x46 x92)) (and (and (and (and (and (not (= x103 x46)) (not (= x103 x90))) (not (= x11 x103))) (not (= x92 x103))) (not (= x46 x90))) (not (= x46 x11)))))))) (and (and (not (= x77 x6)) (and (and (and (not (= x8 x49)) (and (not (= x77 x8)) (and (and (not (= x139 x49)) (and (not (= x77 x139)) (not (= x8 x139)))) (not (= x6 x139))))) (not (= x8 x6))) (not (= x49 x77)))) (not (= x49 x6))))))))
(assert (and (and (not (= (x56 x117 x117) x117)) (and (and (not (= x69 (x56 x69 x69))) (not (= x127 (x56 x127 x127)))) (not (= (x56 x85 x85) x85)))) (not (= (x56 x132 x132) x132))))
(assert (or (and (and (and (not (= (x56 x132 (x56 x132 x85)) x85)) (and (not (= (x56 x132 (x56 x132 x127)) x127)) (not (= x69 (x56 x132 (x56 x132 x69)))))) (not (= (x56 x132 (x56 x132 x117)) x117))) (not (= (x56 x132 (x56 x132 x132)) x132))) (or (or (and (and (not (= x117 (x56 x85 (x56 x85 x117)))) (and (not (= (x56 x85 (x56 x85 x85)) x85)) (and (not (= (x56 x85 (x56 x85 x127)) x127)) (not (= x69 (x56 x85 (x56 x85 x69))))))) (not (= (x56 x85 (x56 x85 x132)) x132))) (or (and (not (= x132 (x56 x69 (x56 x69 x132)))) (and (not (= x117 (x56 x69 (x56 x69 x117)))) (and (and (not (= x69 (x56 x69 (x56 x69 x69)))) (not (= x127 (x56 x69 (x56 x69 x127))))) (not (= x85 (x56 x69 (x56 x69 x85))))))) (and (not (= x132 (x56 x127 (x56 x127 x132)))) (and (and (and (not (= (x56 x127 (x56 x127 x127)) x127)) (not (= (x56 x127 (x56 x127 x69)) x69))) (not (= (x56 x127 (x56 x127 x85)) x85))) (not (= (x56 x127 (x56 x127 x117)) x117)))))) (and (not (= (x56 x117 (x56 x117 x132)) x132)) (and (and (not (= x85 (x56 x117 (x56 x117 x85)))) (and (not (= (x56 x117 (x56 x117 x127)) x127)) (not (= x69 (x56 x117 (x56 x117 x69)))))) (not (= (x56 x117 (x56 x117 x117)) x117)))))))
(assert (let ((x102 (x56 x85 x127)) (x11 (x56 x117 x85)) (x46 (x56 x127 x85)) (x83 (x56 x117 x127)) (x96 (x56 x117 x132)) (x14 (x56 x69 x132)) (x149 (x56 x127 x132)) (x90 (x56 x85 x85)) (x41 (x56 x132 x69)) (x111 (x56 x85 x69)) (x139 (x56 x69 x117)) (x77 (x56 x85 x117)) (x49 (x56 x117 x117)) (x17 (x56 x132 x127)) (x70 (x56 x117 x69)) (x6 (x56 x132 x117)) (x29 (x56 x85 x132)) (x78 (x56 x69 x69)) (x13 (x56 x127 x69)) (x8 (x56 x127 x117)) (x92 (x56 x132 x85)) (x103 (x56 x69 x85)) (x101 (x56 x127 x127)) (x75 (x56 x69 x127)) (x91 (x56 x132 x132))) (and (and (and (and (and (and (and (and (or (or (or (= x78 x85) (or (= x78 x127) (= x78 x69))) (= x117 x78)) (= x78 x132)) (or (= x75 x132) (or (= x117 x75) (or (= x75 x85) (or (= x75 x69) (= x127 x75)))))) (or (or (or (= x103 x85) (or (= x103 x127) (= x69 x103))) (= x117 x103)) (= x132 x103))) (or (or (or (= x85 x139) (or (= x139 x69) (= x139 x127))) (= x139 x117)) (= x139 x132))) (or (= x14 x132) (or (or (= x85 x14) (or (= x127 x14) (= x69 x14))) (= x14 x117)))) (and (or (= x149 x132) (or (= x117 x149) (or (or (= x149 x127) (= x149 x69)) (= x85 x149)))) (and (and (or (or (= x117 x46) (or (= x85 x46) (or (= x46 x127) (= x69 x46)))) (= x132 x46)) (and (or (= x132 x101) (or (= x117 x101) (or (= x85 x101) (or (= x101 x69) (= x101 x127))))) (or (= x13 x132) (or (= x13 x117) (or (= x13 x85) (or (= x13 x69) (= x127 x13))))))) (or (or (= x117 x8) (or (= x85 x8) (or (= x127 x8) (= x69 x8)))) (= x8 x132))))) (and (or (or (or (= x85 x29) (or (= x69 x29) (= x29 x127))) (= x29 x117)) (= x132 x29)) (and (or (= x77 x132) (or (= x117 x77) (or (= x77 x85) (or (= x127 x77) (= x69 x77))))) (and (or (or (= x117 x90) (or (or (= x90 x127) (= x69 x90)) (= x90 x85))) (= x90 x132)) (and (or (or (or (or (= x102 x127) (= x102 x69)) (= x85 x102)) (= x102 x117)) (= x132 x102)) (or (= x132 x111) (or (or (= x111 x85) (or (= x127 x111) (= x111 x69))) (= x117 x111)))))))) (and (and (and (and (or (or (= x117 x83) (or (= x85 x83) (or (= x83 x69) (= x127 x83)))) (= x83 x132)) (or (or (= x117 x70) (or (= x70 x85) (or (= x70 x69) (= x70 x127)))) (= x132 x70))) (or (= x11 x132) (or (= x11 x117) (or (or (= x11 x127) (= x69 x11)) (= x85 x11))))) (or (= x49 x132) (or (or (or (= x49 x127) (= x49 x69)) (= x85 x49)) (= x49 x117)))) (or (= x96 x132) (or (or (= x85 x96) (or (= x96 x69) (= x127 x96))) (= x117 x96))))) (and (and (and (or (or (or (= x85 x92) (or (= x127 x92) (= x69 x92))) (= x117 x92)) (= x132 x92)) (and (or (or (= x117 x41) (or (= x41 x85) (or (= x41 x69) (= x41 x127)))) (= x132 x41)) (or (or (= x117 x17) (or (or (= x17 x69) (= x127 x17)) (= x85 x17))) (= x132 x17)))) (or (= x6 x132) (or (= x117 x6) (or (= x6 x85) (or (= x127 x6) (= x69 x6)))))) (or (= x91 x132) (or (or (or (= x127 x91) (= x91 x69)) (= x91 x85)) (= x117 x91)))))))
(assert (let ((x139 (x56 x117 x117)) (x14 (x56 x132 x132)) (x103 (x56 x85 x85)) (x75 (x56 x127 x127)) (x78 (x56 x69 x69))) (or (and (not (= x132 x14)) (and (not (= x139 x132)) (and (and (not (= x78 x132)) (not (= x132 x75))) (not (= x132 x103))))) (or (or (and (not (= x85 x14)) (and (and (and (not (= x85 x78)) (not (= x75 x85))) (not (= x85 x103))) (not (= x85 x139)))) (or (and (not (= x14 x127)) (and (and (not (= x103 x127)) (and (not (= x75 x127)) (not (= x127 x78)))) (not (= x139 x127)))) (and (and (and (not (= x69 x103)) (and (not (= x69 x78)) (not (= x75 x69)))) (not (= x139 x69))) (not (= x69 x14))))) (and (not (= x117 x14)) (and (not (= x139 x117)) (and (not (= x117 x103)) (and (not (= x78 x117)) (not (= x117 x75))))))))))
(assert (and (not (= (x56 x132 (x56 x132 x132)) x132)) (and (and (and (not (= x127 (x56 x127 (x56 x127 x127)))) (not (= x69 (x56 x69 (x56 x69 x69))))) (not (= (x56 x85 (x56 x85 x85)) x85))) (not (= x117 (x56 x117 (x56 x117 x117)))))))
(assert (or (or (= (x56 (x56 x117 x117) x117) x117) (or (= x85 (x56 (x56 x85 x85) x85)) (or (= x69 (x56 (x56 x69 x69) x69)) (= x127 (x56 (x56 x127 x127) x127))))) (= (x56 (x56 x132 x132) x132) x132)))
(assert (let ((x103 (x56 x85 x85)) (x139 (x56 x117 x117)) (x78 (x56 x69 x69)) (x75 (x56 x127 x127)) (x14 (x56 x132 x132))) (or (or (= x117 (x56 x139 x139)) (or (or (= x127 (x56 x75 x75)) (= x69 (x56 x78 x78))) (= (x56 x103 x103) x85))) (= x132 (x56 x14 x14)))))
(assert (let ((x149 (= (x56 x117 x69) x117)) (x96 (= (x56 x127 x132) x127)) (x103 (= x69 (x56 x69 x127))) (x75 (= x127 (x56 x127 x69))) (x8 (= x85 (x56 x85 x85))) (x49 (= (x56 x132 x127) x132)) (x29 (= x85 (x56 x85 x117))) (x90 (= (x56 x127 x117) x127)) (x14 (= x85 (x56 x85 x69))) (x41 (= (x56 x132 x85) x132)) (x77 (= (x56 x117 x85) x117)) (x83 (= (x56 x132 x69) x132)) (x101 (= (x56 x85 x127) x85)) (x102 (= (x56 x117 x127) x117)) (x11 (= (x56 x69 x132) x69)) (x139 (= x127 (x56 x127 x127))) (x91 (= (x56 x132 x132) x132)) (x111 (= x69 (x56 x69 x117))) (x70 (= x117 (x56 x117 x117))) (x17 (= (x56 x85 x132) x85)) (x92 (= x132 (x56 x132 x117))) (x46 (= (x56 x127 x85) x127)) (x78 (= x69 (x56 x69 x69))) (x13 (= x69 (x56 x69 x85))) (x6 (= (x56 x117 x132) x117))) (or (or (and x91 x91) (or (and x92 x6) (or (or (and x96 x49) (and x11 x83)) (and x41 x17)))) (or (or (or (and x70 x70) (or (and x29 x77) (or (and x90 x102) (and x111 x149)))) (and x6 x92)) (or (or (or (or (or (and x101 x46) (and x14 x13)) (and x8 x8)) (and x29 x77)) (and x17 x41)) (or (or (or (and x102 x90) (or (and x46 x101) (or (and x103 x75) (and x139 x139)))) (and x49 x96)) (or (and x11 x83) (or (and x149 x111) (or (or (and x78 x78) (and x103 x75)) (and x13 x14))))))))))
(assert (and (= (x56 x117 x69) x132) (and (= (x56 x69 x69) x117) (and (= x85 (x56 x132 x117)) (= (x56 x85 x85) x127)))))
(assert (let ((x8 (x56 x85 x85)) (x102 (x56 x117 x127)) (x70 (x56 x117 x117)) (x103 (x56 x69 x127)) (x90 (x56 x127 x117)) (x29 (x56 x85 x117)) (x13 (x56 x69 x85)) (x83 (x56 x132 x69)) (x6 (x56 x117 x132)) (x75 (x56 x127 x69)) (x149 (x56 x117 x69)) (x139 (x56 x127 x127)) (x91 (x56 x132 x132)) (x78 (x56 x69 x69)) (x111 (x56 x69 x117)) (x49 (x56 x132 x127)) (x96 (x56 x127 x132)) (x41 (x56 x132 x85)) (x11 (x56 x69 x132)) (x77 (x56 x117 x85)) (x14 (x56 x85 x69)) (x92 (x56 x132 x117)) (x17 (x56 x85 x132)) (x101 (x56 x85 x127)) (x46 (x56 x127 x85))) (or (or (or (or (and (and (and (= x46 x101) (and (= x139 x139) (= x103 x75))) (= x90 x102)) (= x49 x96)) (and (and (and (and (= x75 x103) (= x78 x78)) (= x14 x13)) (= x111 x149)) (= x11 x83))) (and (and (= x77 x29) (and (= x8 x8) (and (= x14 x13) (= x46 x101)))) (= x17 x41))) (and (and (and (and (= x111 x149) (= x102 x90)) (= x29 x77)) (= x70 x70)) (= x92 x6))) (and (and (= x6 x92) (and (= x41 x17) (and (= x83 x11) (= x96 x49)))) (= x91 x91)))))
(check-sat)
(exit)
